Results/Experiment 1 Results/Existing Benchmark/RES_60/i-60-100-8.txt
solutions: 0 nodes: 2  modelTime: 112  solveTime: 27  totalTime: 149  modelSize: 7853  readTime: 10 matchingSize: 0
