Results/Experiment 2 Results/Existing Benchmark/i-60-100-8.lp
clingo version 5.4.0
Reading from tempSRTISolver.lp ...
Solving...
UNSATISFIABLE

Models       : 0
Calls        : 1
Time         : 7.753s (Solving: 0.64s 1st Model: 0.00s Unsat: 0.64s)
CPU Time     : 7.744s
